(set-logic QF_S)
(declare-fun var0 () String)
(declare-fun var1 () String)
(declare-fun var2 () String)
(declare-fun var3 () String)
(declare-fun var4 () String)
(declare-fun var5 () String)
(declare-fun var6 () String)
(declare-fun var7 () String)
(declare-fun var8 () String)
(declare-fun var9 () String)
(declare-fun var10 () String)
(declare-fun var11 () String)
(declare-fun var12 () String)
(declare-fun var13 () String)
(declare-fun var14 () String)
(declare-fun var15 () String)
(declare-fun var16 () String)
(declare-fun var17 () String)
(declare-fun var18 () String)
(declare-fun var19 () String)
(declare-fun var20 () String)
(declare-fun var21 () String)
(declare-fun var22 () String)
(declare-fun var23 () String)
(declare-fun var24 () String)
(declare-fun var25 () String)
(declare-fun var26 () String)
(declare-fun var27 () String)
(declare-fun var28 () String)
(declare-fun var29 () String)
(declare-fun var30 () String)
(declare-fun var31 () String)
(declare-fun var32 () String)
(declare-fun var33 () String)
(declare-fun var34 () String)
(declare-fun var35 () String)
(declare-fun var36 () String)
(declare-fun var37 () String)
(declare-fun var38 () String)
(declare-fun var39 () String)
(declare-fun var40 () String)
(declare-fun var41 () String)
(declare-fun var42 () String)
(declare-fun var43 () String)
(declare-fun var44 () String)
(declare-fun var45 () String)
(declare-fun var46 () String)
(declare-fun var47 () String)
(declare-fun var48 () String)
(declare-fun var49 () String)
(declare-fun var50 () String)
(declare-fun var51 () String)
(declare-fun var52 () String)
(declare-fun var53 () String)
(declare-fun var54 () String)
(declare-fun var55 () String)
(declare-fun var56 () String)
(declare-fun var57 () String)
(declare-fun var58 () String)
(declare-fun var59 () String)
(declare-fun var60 () String)
(assert (= var0 (Concat var1 var2)))
(assert (= var2 (Concat var3 var4)))
(assert (= var4 (Concat var5 var6)))
(assert (= var6 (Concat var7 var8)))
(assert (= var8 (Concat var9 var10)))
(assert (= var10 (Concat var11 var12)))
(assert (= var12 (Concat var13 var14)))
(assert (= var14 (Concat var15 var16)))
(assert (= var16 (Concat var17 var18)))
(assert (= var18 (Concat var19 var20)))
(assert (= var20 (Concat var21 var22)))
(assert (= var22 (Concat var23 var24)))
(assert (= var24 (Concat var25 var26)))
(assert (= var26 (Concat var27 var28)))
(assert (= var28 (Concat var29 var30)))
(assert (= var30 (Concat var31 var32)))
(assert (= var32 (Concat var33 var34)))
(assert (= var34 (Concat var35 var36)))
(assert (= var36 (Concat var37 var38)))
(assert (= var38 (Concat var39 var40)))
(assert (= var40 (Concat var41 var42)))
(assert (= var42 (Concat var43 var44)))
(assert (= var44 (Concat var45 var46)))
(assert (= var46 (Concat var47 var48)))
(assert (= var48 (Concat var49 var50)))
(assert (= var50 (Concat var51 var52)))
(assert (= var52 (Concat var53 var54)))
(assert (= var54 (Concat var55 var56)))
(assert (= var56 (Concat var57 var58)))
(assert (= var58 (Concat var59 var60)))
(assert (= var0 "solution"))
(assert (= "8" (CharAt var31 175)))
(assert (= "," (CharAt var52 197)))
(assert (= "q" (CharAt var39 899)))
(assert (= "W" (CharAt var12 240)))
(assert (= "y" (CharAt var54 471)))
(assert (= "#" (CharAt var43 731)))
(assert (= "*" (CharAt var16 618)))
(assert (= "j" (CharAt var52 38)))
(assert (= "l" (CharAt var44 396)))
(assert (= "g" (CharAt var43 626)))
(assert (= "<" (CharAt var49 13)))
(assert (= "0" (CharAt var22 506)))
(assert (= "s" (CharAt var20 400)))
(assert (= "y" (CharAt var4 888)))
(assert (= "Y" (CharAt var32 266)))
(assert (= "G" (CharAt var24 111)))
(assert (= "=" (CharAt var21 283)))
(assert (= "i" (CharAt var38 774)))
(assert (= "-" (CharAt var49 293)))
(assert (= "^" (CharAt var4 177)))
(assert (= "^" (CharAt var55 759)))
(assert (= ">" (CharAt var38 67)))
(assert (= "8" (CharAt var4 709)))
(assert (= "h" (CharAt var30 529)))
(assert (= "6" (CharAt var36 641)))
(assert (= "S" (CharAt var9 453)))
(assert (= "G" (CharAt var60 728)))
(assert (= "*" (CharAt var47 347)))
(assert (= "<" (CharAt var58 222)))
(assert (= "{" (CharAt var11 60)))
(assert (= "`" (CharAt var9 364)))
(assert (= "t" (CharAt var26 423)))
(assert (= "Y" (CharAt var45 757)))
(assert (= "1" (CharAt var45 971)))
(assert (= "r" (CharAt var35 126)))
(assert (= "q" (CharAt var21 295)))
(assert (= "r" (CharAt var22 181)))
(assert (= "v" (CharAt var21 242)))
(assert (= "4" (CharAt var13 534)))
(assert (= "v" (CharAt var26 146)))
(assert (= "%" (CharAt var38 388)))
(assert (= "o" (CharAt var18 10)))
(assert (= "N" (CharAt var8 701)))
(assert (= "C" (CharAt var41 154)))
(assert (= "+" (CharAt var6 397)))
(assert (= "\\" (CharAt var16 994)))
(assert (= "(" (CharAt var43 497)))
(assert (= ")" (CharAt var50 121)))
(assert (= "<" (CharAt var5 933)))
(assert (= "K" (CharAt var1 558)))
(assert (= "X" (CharAt var39 29)))
(assert (= "3" (CharAt var47 887)))
(assert (= "," (CharAt var10 279)))
(assert (= "D" (CharAt var55 371)))
(assert (= "2" (CharAt var5 612)))
(assert (= "/" (CharAt var40 108)))
(assert (= "p" (CharAt var25 258)))
(assert (= "*" (CharAt var52 973)))
(assert (= "s" (CharAt var17 12)))
(assert (= "(" (CharAt var34 546)))
(assert (= "m" (CharAt var48 777)))
(assert (= "x" (CharAt var37 716)))
(assert (= "Z" (CharAt var43 117)))
(assert (= "%" (CharAt var4 651)))
(assert (= "\"" (CharAt var20 262)))
(assert (= "h" (CharAt var9 505)))
(assert (= "s" (CharAt var37 227)))
(assert (= "\"" (CharAt var57 791)))
(assert (= "$" (CharAt var34 667)))
(assert (= "@" (CharAt var26 786)))
(assert (= "3" (CharAt var11 172)))
(assert (= "O" (CharAt var53 154)))
(assert (= "b" (CharAt var29 875)))
(assert (= "%" (CharAt var33 204)))
(assert (= "^" (CharAt var27 383)))
(assert (= "^" (CharAt var16 897)))
(assert (= "R" (CharAt var54 537)))
(assert (= "Z" (CharAt var59 620)))
(assert (= "C" (CharAt var39 250)))
(assert (= "~" (CharAt var6 449)))
(assert (= "X" (CharAt var5 23)))
(assert (= "W" (CharAt var37 735)))
(assert (= "P" (CharAt var59 144)))
(assert (= "L" (CharAt var28 968)))
(assert (= "?" (CharAt var8 152)))
(assert (= "3" (CharAt var6 554)))
(assert (= "x" (CharAt var13 19)))
(assert (= "<" (CharAt var36 471)))
(assert (= "|" (CharAt var12 870)))
(assert (= "H" (CharAt var54 254)))
(assert (= "X" (CharAt var51 228)))
(assert (= "J" (CharAt var22 569)))
(assert (= "z" (CharAt var47 893)))
(assert (= "S" (CharAt var59 348)))
(assert (= "J" (CharAt var50 597)))
(assert (= "," (CharAt var11 216)))
(assert (= "f" (CharAt var14 380)))
(assert (= "\\" (CharAt var57 725)))
(assert (= ":" (CharAt var22 988)))
(assert (= "a" (CharAt var15 323)))
(assert (= "V" (CharAt var6 956)))
(assert (= "&" (CharAt var33 259)))
(assert (= "v" (CharAt var17 152)))
(assert (= "w" (CharAt var34 853)))
(assert (= "r" (CharAt var32 763)))
(assert (= "m" (CharAt var5 399)))
(assert (= "/" (CharAt var34 80)))
(assert (= ">" (CharAt var36 331)))
(assert (= "3" (CharAt var11 18)))
(assert (= "'" (CharAt var24 867)))
(assert (= "<" (CharAt var27 896)))
(assert (= "Z" (CharAt var8 114)))
(assert (= "@" (CharAt var60 64)))
(assert (= "}" (CharAt var46 252)))
(assert (= ":" (CharAt var12 191)))
(assert (= "i" (CharAt var37 31)))
(assert (= "B" (CharAt var6 394)))
(assert (= "'" (CharAt var37 588)))
(assert (= "V" (CharAt var46 162)))
(assert (= "+" (CharAt var31 432)))
(assert (= "z" (CharAt var51 440)))
(assert (= "#" (CharAt var18 695)))
(assert (= "n" (CharAt var35 780)))
(assert (= "O" (CharAt var12 766)))
(assert (= "&" (CharAt var55 963)))
(assert (= "w" (CharAt var14 770)))
(assert (= "K" (CharAt var58 584)))
(assert (= "`" (CharAt var40 406)))
(assert (= "e" (CharAt var49 268)))
(assert (= "t" (CharAt var10 747)))
(assert (= "c" (CharAt var40 856)))
(assert (= "x" (CharAt var19 756)))
(assert (= "<" (CharAt var41 883)))
(assert (= "!" (CharAt var16 554)))
(assert (= "g" (CharAt var51 137)))
(assert (= "f" (CharAt var32 228)))
(assert (= "Q" (CharAt var17 471)))
(assert (= "N" (CharAt var51 150)))
(assert (= "8" (CharAt var24 794)))
(assert (= "y" (CharAt var5 138)))
(assert (= "(" (CharAt var31 622)))
(assert (= "&" (CharAt var22 598)))
(assert (= "g" (CharAt var11 581)))
(assert (= "7" (CharAt var24 784)))
(assert (= "0" (CharAt var37 93)))
(assert (= "g" (CharAt var26 470)))
(assert (= "U" (CharAt var6 746)))
(assert (= ";" (CharAt var14 810)))
(assert (= "b" (CharAt var46 619)))
(assert (= "K" (CharAt var18 17)))
(assert (= "S" (CharAt var3 228)))
(assert (= "A" (CharAt var12 854)))
(assert (= "`" (CharAt var22 347)))
(assert (= "N" (CharAt var12 548)))
(assert (= "^" (CharAt var18 282)))
(assert (= "k" (CharAt var16 357)))
(assert (= "y" (CharAt var53 613)))
(assert (= "^" (CharAt var53 676)))
(assert (= "z" (CharAt var35 172)))
(assert (= "y" (CharAt var59 200)))
(assert (= "P" (CharAt var35 843)))
(assert (= "5" (CharAt var12 664)))
(assert (= ";" (CharAt var16 894)))
(assert (= "O" (CharAt var39 137)))
(assert (= "." (CharAt var35 386)))
(assert (= "1" (CharAt var38 799)))
(assert (= "$" (CharAt var28 467)))
(assert (= "G" (CharAt var14 935)))
(assert (= "A" (CharAt var21 983)))
(assert (= "4" (CharAt var56 281)))
(assert (= "@" (CharAt var21 618)))
(assert (= "f" (CharAt var10 1000)))
(assert (= "^" (CharAt var15 242)))
(assert (= "]" (CharAt var36 68)))
(assert (= "*" (CharAt var31 623)))
(assert (= "f" (CharAt var34 747)))
(assert (= "\\" (CharAt var13 314)))
(assert (= "t" (CharAt var35 454)))
(assert (= "u" (CharAt var30 45)))
(assert (= "C" (CharAt var19 123)))
(assert (= "z" (CharAt var36 579)))
(assert (= ")" (CharAt var9 907)))
(assert (= "@" (CharAt var21 527)))
(assert (= "y" (CharAt var12 835)))
(assert (= ">" (CharAt var56 831)))
(assert (= "=" (CharAt var52 307)))
(assert (= "A" (CharAt var50 154)))
(assert (= "0" (CharAt var35 295)))
(assert (= ";" (CharAt var35 698)))
(assert (= "r" (CharAt var56 769)))
(assert (= "s" (CharAt var37 333)))
(assert (= "e" (CharAt var49 649)))
(assert (= "*" (CharAt var15 859)))
(assert (= "<" (CharAt var22 667)))
(assert (= "v" (CharAt var54 97)))
(assert (= "w" (CharAt var36 671)))
(assert (= "@" (CharAt var30 196)))
(assert (= "e" (CharAt var54 552)))
(assert (= "w" (CharAt var15 86)))
(assert (= "<" (CharAt var47 199)))
(assert (= "`" (CharAt var42 520)))
(assert (= "O" (CharAt var40 302)))
(assert (= "9" (CharAt var7 321)))
(assert (= "q" (CharAt var6 825)))
(assert (= "`" (CharAt var14 847)))
(assert (= "1" (CharAt var40 16)))
(assert (= "z" (CharAt var21 943)))
(assert (= "U" (CharAt var33 91)))
(assert (= "7" (CharAt var39 393)))
(assert (= "w" (CharAt var33 691)))
(assert (= "/" (CharAt var40 539)))
(assert (= "$" (CharAt var3 803)))
(assert (= "n" (CharAt var5 824)))
(assert (= "m" (CharAt var6 350)))
(assert (= "a" (CharAt var0 577)))
(assert (= "*" (CharAt var9 52)))
(assert (= "+" (CharAt var52 33)))
(assert (= "d" (CharAt var32 7)))
(assert (= "l" (CharAt var30 270)))
(assert (= "\\" (CharAt var3 881)))
(assert (= "S" (CharAt var59 907)))
(assert (= "D" (CharAt var58 924)))
(assert (= "?" (CharAt var8 162)))
(assert (= "P" (CharAt var35 619)))
(assert (= "E" (CharAt var22 844)))
(assert (= "Q" (CharAt var33 576)))
(assert (= "r" (CharAt var9 24)))
(assert (= "x" (CharAt var24 86)))
(assert (= "s" (CharAt var48 985)))
(assert (= "[" (CharAt var44 823)))
(assert (= "J" (CharAt var14 487)))
(assert (= "B" (CharAt var32 953)))
(assert (= "N" (CharAt var38 562)))
(assert (= "u" (CharAt var58 948)))
(assert (= "J" (CharAt var14 866)))
(assert (= "e" (CharAt var22 336)))
(assert (= "^" (CharAt var33 32)))
(assert (= "R" (CharAt var39 757)))
(assert (= "\\" (CharAt var23 893)))
(assert (= "l" (CharAt var2 674)))
(assert (= "'" (CharAt var32 831)))
(assert (= "^" (CharAt var0 699)))
(assert (= "s" (CharAt var41 579)))
(assert (= "l" (CharAt var35 130)))
(assert (= "-" (CharAt var28 794)))
(assert (= "%" (CharAt var42 877)))
(assert (= "`" (CharAt var54 46)))
(assert (= "W" (CharAt var42 633)))
(assert (= "2" (CharAt var16 936)))
(assert (= "m" (CharAt var4 470)))
(assert (= "." (CharAt var8 78)))
(assert (= "k" (CharAt var51 790)))
(assert (= "1" (CharAt var49 263)))
(assert (= "3" (CharAt var21 725)))
(assert (= "0" (CharAt var53 884)))
(assert (= "m" (CharAt var48 227)))
(assert (= "g" (CharAt var23 36)))
(assert (= "%" (CharAt var10 502)))
(assert (= "6" (CharAt var28 694)))
(assert (= "c" (CharAt var36 543)))
(assert (= "g" (CharAt var53 225)))
(assert (= "i" (CharAt var30 517)))
(assert (= "v" (CharAt var37 678)))
(assert (= "s" (CharAt var35 312)))
(assert (= "^" (CharAt var55 554)))
(assert (= "K" (CharAt var40 694)))
(assert (= "\\" (CharAt var23 397)))
(assert (= "Y" (CharAt var56 510)))
(assert (= "C" (CharAt var57 895)))
(assert (= "t" (CharAt var8 377)))
(assert (= "[" (CharAt var50 305)))
(assert (= "u" (CharAt var44 384)))
(assert (= "C" (CharAt var11 741)))
(assert (= ":" (CharAt var3 538)))
(assert (= "w" (CharAt var37 510)))
(assert (= "h" (CharAt var51 618)))
(assert (= "{" (CharAt var29 502)))
(assert (= "C" (CharAt var8 229)))
(assert (= "^" (CharAt var51 513)))
(assert (= "{" (CharAt var58 87)))
(assert (= "s" (CharAt var57 9)))
(assert (= ":" (CharAt var53 645)))
(assert (= "s" (CharAt var13 730)))
(assert (= "6" (CharAt var4 710)))
(assert (= "H" (CharAt var44 111)))
(assert (= "Y" (CharAt var11 562)))
(assert (= "l" (CharAt var57 212)))
(assert (= "?" (CharAt var45 769)))
(assert (= "8" (CharAt var0 407)))
(assert (= "<" (CharAt var41 403)))
(assert (= "o" (CharAt var54 956)))
(assert (= "l" (CharAt var0 482)))
(assert (= "f" (CharAt var3 370)))
(assert (= "-" (CharAt var53 839)))
(assert (= "9" (CharAt var10 688)))
(assert (= "S" (CharAt var29 285)))
(assert (= "M" (CharAt var0 774)))
(assert (= "O" (CharAt var51 906)))
(assert (= "!" (CharAt var29 166)))
(assert (= "]" (CharAt var17 790)))
(assert (= "-" (CharAt var23 22)))
(assert (= "%" (CharAt var10 684)))
(assert (= "1" (CharAt var25 13)))
(assert (= "T" (CharAt var43 258)))
(assert (= "8" (CharAt var3 944)))
(assert (= "\\" (CharAt var21 21)))
(assert (= "=" (CharAt var3 588)))
(assert (= "w" (CharAt var29 470)))
(assert (= "V" (CharAt var58 633)))
(assert (= "Q" (CharAt var33 917)))
(assert (= "<" (CharAt var6 926)))
(assert (= "S" (CharAt var41 461)))
(assert (= ";" (CharAt var18 801)))
(assert (= "\\" (CharAt var18 837)))
(assert (= "i" (CharAt var57 510)))
(assert (= "6" (CharAt var14 120)))
(assert (= "f" (CharAt var22 401)))
(assert (= "P" (CharAt var6 146)))
(assert (= "0" (CharAt var7 978)))
(assert (= ";" (CharAt var32 42)))
(assert (= "}" (CharAt var12 456)))
(assert (= "W" (CharAt var48 745)))
(assert (= "y" (CharAt var16 629)))
(assert (= "w" (CharAt var1 235)))
(assert (= "<" (CharAt var46 954)))
(assert (= "Z" (CharAt var46 692)))
(assert (= "H" (CharAt var8 170)))
(assert (= "b" (CharAt var11 922)))
(assert (= "8" (CharAt var11 533)))
(assert (= ")" (CharAt var59 338)))
(assert (= "<" (CharAt var32 450)))
(assert (= "G" (CharAt var57 921)))
(assert (= "\"" (CharAt var50 910)))
(assert (= "Y" (CharAt var2 530)))
(assert (= "f" (CharAt var35 310)))
(assert (= "?" (CharAt var29 762)))
(assert (= "q" (CharAt var11 265)))
(assert (= "(" (CharAt var25 911)))
(assert (= "C" (CharAt var19 462)))
(assert (= "-" (CharAt var50 500)))
(assert (= "~" (CharAt var11 217)))
(assert (= "@" (CharAt var23 505)))
(assert (= "S" (CharAt var28 301)))
(assert (= "j" (CharAt var16 210)))
(assert (= "5" (CharAt var41 920)))
(assert (= "F" (CharAt var55 900)))
(assert (= "q" (CharAt var39 673)))
(assert (= "2" (CharAt var14 39)))
(assert (= "O" (CharAt var34 930)))
(assert (= "O" (CharAt var49 765)))
(assert (= "u" (CharAt var24 315)))
(assert (= "F" (CharAt var30 162)))
(assert (= "4" (CharAt var56 486)))
(assert (= "@" (CharAt var55 78)))
(assert (= "@" (CharAt var46 403)))
(assert (= "0" (CharAt var32 234)))
(assert (= "C" (CharAt var50 558)))
(assert (= "o" (CharAt var54 858)))
(assert (= "{" (CharAt var40 696)))
(assert (= "O" (CharAt var24 102)))
(assert (= "Q" (CharAt var35 708)))
(assert (= "@" (CharAt var15 743)))
(assert (= "2" (CharAt var50 980)))
(assert (= "," (CharAt var12 189)))
(assert (= "F" (CharAt var6 981)))
(assert (= "N" (CharAt var48 147)))
(assert (= "." (CharAt var3 51)))
(assert (= "H" (CharAt var35 796)))
(assert (= "{" (CharAt var22 420)))
(assert (= "-" (CharAt var51 795)))
(assert (= "X" (CharAt var50 178)))
(assert (= "]" (CharAt var31 916)))
(assert (= "I" (CharAt var27 88)))
(assert (= "{" (CharAt var24 524)))
(assert (= "2" (CharAt var25 390)))
(assert (= "." (CharAt var13 995)))
(assert (= "K" (CharAt var44 588)))
(assert (= "Y" (CharAt var44 692)))
(assert (= "G" (CharAt var41 648)))
(assert (= "h" (CharAt var29 608)))
(assert (= "B" (CharAt var55 345)))
(assert (= "}" (CharAt var37 20)))
(assert (= "M" (CharAt var4 118)))
(assert (= "P" (CharAt var56 704)))
(assert (= "h" (CharAt var44 253)))
(assert (= "p" (CharAt var14 823)))
(assert (= "I" (CharAt var34 226)))
(assert (= "!" (CharAt var22 744)))
(assert (= "/" (CharAt var12 363)))
(assert (= "a" (CharAt var47 161)))
(assert (= "}" (CharAt var4 996)))
(assert (= "I" (CharAt var22 8)))
(assert (= "z" (CharAt var39 177)))
(assert (= "|" (CharAt var10 119)))
(assert (= "S" (CharAt var10 990)))
(assert (= "/" (CharAt var44 866)))
(assert (= "q" (CharAt var25 886)))
(assert (= "u" (CharAt var13 389)))
(assert (= "N" (CharAt var28 241)))
(assert (= "6" (CharAt var55 51)))
(assert (= "9" (CharAt var29 155)))
(assert (= "&" (CharAt var28 588)))
(assert (= "K" (CharAt var20 658)))
(assert (= "H" (CharAt var38 637)))
(assert (= "y" (CharAt var35 587)))
(assert (= "'" (CharAt var20 66)))
(assert (= "r" (CharAt var33 158)))
(assert (= "~" (CharAt var44 743)))
(assert (= "s" (CharAt var18 604)))
(assert (= "e" (CharAt var18 696)))
(assert (= "F" (CharAt var47 60)))
(assert (= "6" (CharAt var19 64)))
(assert (= "V" (CharAt var28 845)))
(assert (= "!" (CharAt var48 904)))
(assert (= "i" (CharAt var44 508)))
(assert (= "X" (CharAt var45 909)))
(assert (= "@" (CharAt var22 621)))
(assert (= "P" (CharAt var29 132)))
(assert (= "E" (CharAt var3 991)))
(assert (= "Y" (CharAt var14 419)))
(assert (= "X" (CharAt var22 899)))
(assert (= "&" (CharAt var39 27)))
(assert (= "H" (CharAt var51 850)))
(assert (= "&" (CharAt var15 935)))
(assert (= "g" (CharAt var0 127)))
(assert (= "+" (CharAt var40 333)))
(assert (= "H" (CharAt var33 9)))
(assert (= "}" (CharAt var42 76)))
(assert (= "?" (CharAt var42 342)))
(assert (= "$" (CharAt var49 928)))
(assert (= "~" (CharAt var34 43)))
(assert (= "+" (CharAt var35 351)))
(assert (= "h" (CharAt var34 185)))
(assert (= "+" (CharAt var39 117)))
(assert (= "[" (CharAt var29 674)))
(assert (= "5" (CharAt var1 183)))
(assert (= "=" (CharAt var26 487)))
(assert (= "2" (CharAt var45 448)))
(assert (= "I" (CharAt var42 583)))
(assert (= "*" (CharAt var24 437)))
(assert (= "Y" (CharAt var9 675)))
(assert (= "R" (CharAt var27 93)))
(assert (= "." (CharAt var23 842)))
(assert (= "^" (CharAt var37 426)))
(assert (= "R" (CharAt var32 218)))
(assert (= "H" (CharAt var43 352)))
(assert (= ")" (CharAt var55 420)))
(assert (= "u" (CharAt var21 774)))
(assert (= "h" (CharAt var54 981)))
(assert (= "-" (CharAt var13 562)))
(assert (= "C" (CharAt var34 709)))
(assert (= "Y" (CharAt var10 591)))
(assert (= "(" (CharAt var26 947)))
(assert (= "4" (CharAt var48 464)))
(assert (= "d" (CharAt var7 374)))
(assert (= "]" (CharAt var0 147)))
(assert (= "o" (CharAt var55 347)))
(assert (= "Z" (CharAt var54 683)))
(assert (= "V" (CharAt var22 578)))
(assert (= "W" (CharAt var51 743)))
(assert (= "9" (CharAt var54 476)))
(assert (= "\\" (CharAt var4 47)))
(assert (= "J" (CharAt var51 545)))
(assert (= "}" (CharAt var43 465)))
(assert (= "'" (CharAt var20 984)))
(assert (= "J" (CharAt var19 21)))
(assert (= "%" (CharAt var17 160)))
(assert (= "L" (CharAt var40 409)))
(assert (= "a" (CharAt var47 416)))
(assert (= "v" (CharAt var52 320)))
(assert (= "j" (CharAt var33 109)))
(assert (= "B" (CharAt var53 512)))
(assert (= "p" (CharAt var43 971)))
(assert (= "d" (CharAt var5 992)))
(assert (= "1" (CharAt var13 788)))
(assert (= "G" (CharAt var41 663)))
(assert (= "g" (CharAt var55 408)))
(assert (= "T" (CharAt var37 799)))
(assert (= "4" (CharAt var25 394)))
(assert (= "c" (CharAt var20 447)))
(assert (= "f" (CharAt var26 115)))
(assert (= "P" (CharAt var39 502)))
(assert (= "Z" (CharAt var7 251)))
(assert (= "G" (CharAt var32 692)))
(assert (= "C" (CharAt var20 485)))
(assert (= "~" (CharAt var6 665)))
(assert (= "B" (CharAt var52 717)))
(assert (= "Q" (CharAt var23 942)))
(assert (= "P" (CharAt var54 30)))
(assert (= "y" (CharAt var11 792)))
(assert (= "B" (CharAt var23 422)))
(assert (= "{" (CharAt var25 417)))
(assert (= "[" (CharAt var34 93)))
(assert (= "k" (CharAt var15 927)))
(assert (= "o" (CharAt var37 518)))
(assert (= "V" (CharAt var35 281)))
(assert (= "*" (CharAt var38 192)))
(assert (= "a" (CharAt var43 620)))
(assert (= "D" (CharAt var22 871)))
(assert (= "{" (CharAt var2 273)))
(assert (= "W" (CharAt var12 879)))
(assert (= "k" (CharAt var60 604)))
(assert (= "J" (CharAt var5 231)))
(assert (= "a" (CharAt var23 832)))
(assert (= "%" (CharAt var14 998)))
(assert (= "`" (CharAt var38 568)))
(assert (= "6" (CharAt var11 86)))
(assert (= "=" (CharAt var3 622)))
(assert (= "^" (CharAt var60 30)))
(assert (= "7" (CharAt var40 842)))
(assert (= "x" (CharAt var42 944)))
(assert (= "<" (CharAt var32 740)))
(assert (= "I" (CharAt var38 668)))
(assert (= "j" (CharAt var51 184)))
(assert (= "Y" (CharAt var49 219)))
(assert (= "k" (CharAt var59 674)))
(assert (= "%" (CharAt var10 346)))
(assert (= "s" (CharAt var11 128)))
(assert (= "I" (CharAt var21 816)))
(assert (= "S" (CharAt var20 654)))
(assert (= "3" (CharAt var9 698)))
(assert (= "w" (CharAt var50 867)))
(assert (= "#" (CharAt var4 46)))
(assert (= "z" (CharAt var38 722)))
(assert (= ")" (CharAt var8 422)))
(assert (= ")" (CharAt var51 16)))
(assert (= "4" (CharAt var52 489)))
(assert (= "3" (CharAt var5 863)))
(assert (= "&" (CharAt var16 431)))
(assert (= "$" (CharAt var20 42)))
(assert (= "}" (CharAt var31 453)))
(assert (= "x" (CharAt var1 699)))
(assert (= "v" (CharAt var33 698)))
(assert (= "d" (CharAt var58 113)))
(assert (= "l" (CharAt var15 348)))
(assert (= "E" (CharAt var48 580)))
(assert (= "e" (CharAt var26 477)))
(assert (= "g" (CharAt var43 200)))
(assert (= "~" (CharAt var55 662)))
(assert (= "%" (CharAt var37 659)))
(assert (= "@" (CharAt var7 886)))
(assert (= ">" (CharAt var34 878)))
(assert (= "U" (CharAt var34 879)))
(assert (= "]" (CharAt var15 535)))
(assert (= "|" (CharAt var5 530)))
(assert (= "9" (CharAt var18 881)))
(assert (= "n" (CharAt var29 170)))
(assert (= "a" (CharAt var45 30)))
(assert (= "K" (CharAt var7 774)))
(assert (= "A" (CharAt var22 983)))
(assert (= "'" (CharAt var46 457)))
(assert (= "G" (CharAt var35 967)))
(assert (= "$" (CharAt var37 355)))
(assert (= "B" (CharAt var48 786)))
(assert (= "k" (CharAt var26 604)))
(assert (= "m" (CharAt var6 671)))
(assert (= "K" (CharAt var7 393)))
(assert (= "S" (CharAt var49 383)))
(assert (= "%" (CharAt var8 83)))
(assert (= "6" (CharAt var2 892)))
(assert (= ">" (CharAt var52 99)))
(assert (= "~" (CharAt var16 764)))
(assert (= "k" (CharAt var14 183)))
(assert (= "^" (CharAt var30 329)))
(assert (= "N" (CharAt var27 509)))
(assert (= "*" (CharAt var53 947)))
(assert (= "w" (CharAt var42 901)))
(assert (= "j" (CharAt var49 172)))
(assert (= "6" (CharAt var26 761)))
(assert (= "h" (CharAt var34 583)))
(assert (= "=" (CharAt var17 360)))
(assert (= "y" (CharAt var30 173)))
(assert (= "]" (CharAt var56 48)))
(assert (= "X" (CharAt var38 104)))
(assert (= ";" (CharAt var15 156)))
(assert (= "?" (CharAt var14 185)))
(assert (= "2" (CharAt var45 465)))
(assert (= "l" (CharAt var33 926)))
(assert (= "U" (CharAt var5 504)))
(assert (= "F" (CharAt var41 254)))
(assert (= "T" (CharAt var36 596)))
(assert (= "I" (CharAt var21 884)))
(assert (= "1" (CharAt var60 195)))
(assert (= "H" (CharAt var2 603)))
(assert (= "<" (CharAt var29 929)))
(assert (= "_" (CharAt var53 836)))
(assert (= "Q" (CharAt var46 896)))
(assert (= "(" (CharAt var60 862)))
(assert (= "y" (CharAt var14 664)))
(assert (= "r" (CharAt var48 659)))
(assert (= ":" (CharAt var20 198)))
(assert (= "_" (CharAt var19 730)))
(assert (= "/" (CharAt var13 498)))
(assert (= ":" (CharAt var33 757)))
(assert (= "+" (CharAt var5 883)))
(assert (= "D" (CharAt var22 201)))
(assert (= "-" (CharAt var59 450)))
(assert (= "R" (CharAt var0 442)))
(assert (= "4" (CharAt var21 151)))
(assert (= "4" (CharAt var50 714)))
(assert (= "s" (CharAt var55 838)))
(check-sat)
(get-model)